p edges 34 91
e 1 1
e 1 2
e 1 3
e 2 1
e 2 2
e 3 2
e 5 1
e 5 2
e 6 2
e 6 3
e 7 1
e 7 2
e 7 3
e 9 1
e 9 2
e 11 2
e 11 3
e 11 4
e 11 5
e 12 3
e 12 4
e 12 5
e 14 3
e 14 4
e 14 5
e 14 6
e 15 2
e 17 1
e 19 4
e 22 2
e 22 3
e 22 4
e 24 2
e 26 3
w 1 501
w 2 501
w 3 251
w 4 250
w 5 501
w 6 501
w 7 501
w 8 500
w 9 875
w 10 126
w 11 251
w 12 250
w 13 501
w 14 250
w 15 501
w 16 250
w 17 250
w 18 751
w 19 250
w 20 126
w 21 250
w 22 250
w 23 751
w 24 250
w 25 251
w 26 251
w 27 251
w 28 501
w 29 501
w 30 250
w 31 250
w 32 501
w 33 501
w 34 501
c 2
17
18
c 2
6
28
c 4
10
20
29
30
c 3
15
19
31
c 2
5
6
c 2
5
13
c 3
13
22
26
c 3
24
26
32
c 3
14
15
16
c 3
8
14
19
c 3
27
29
30
c 2
1
33
c 3
11
21
28
c 4
12
22
26
27
c 3
11
15
21
c 3
15
19
22
c 3
8
16
25
c 3
7
11
21
c 4
12
24
26
27
c 3
2
3
24
c 2
2
29
c 4
3
4
17
25
c 3
8
16
26
c 4
16
19
24
25
c 2
18
30
c 3
16
19
34
c 3
4
12
15
c 3
7
24
25
c 3
3
4
13
c 3
1
3
4
c 3
2
3
4
n 1 CL000001
n 2 CL000015
n 3 CL000016
n 4 CL000021
n 5 CL000026
n 6 CL000030
n 7 CL000050
n 8 CL000053
n 9 CL000187
n 10 CL000197
n 11 CL000465
n 12 CL000467
n 13 CL000615
n 14 CL000693
n 15 CL000732
n 16 CL000753
n 17 CL000820
n 18 CL000823
n 19 CL000943
n 20 CL001282
n 21 CL001683
n 22 CL002307
n 23 CL002525
n 24 CL002610
n 25 CL002715
n 26 CL002836
n 27 CL002908
n 28 CL004130
n 29 CL005670
n 30 CL005674
n 31 CL006183
n 32 CL009127
n 33 CL010182
n 34 CL010742
